
  12    4
  10   10   10   10

   0   0   0   0   0   1 2 
   5  10  10  10  10   1 3 
   1  10  10  10  10   1 4 
   1  10  10  10  10   3 8 6 5 
   3  10  10  10  10   2 9 7 
   8  10  10  10  10   1 7 
   4  10  10  10  10   2 11 10 
  10  10  10  10  10   2 11 10 
   9  10  10  10  10   1 10 
   5  10  10  10  10   1 12
   3  10  10  10  10   1 12
   0   0   0   0   0   0 
